2223.0 33721.0 
2221.0 34003.0 
2306.0 32822.0 
2346.0 32728.0 
2346.0 32728.0 
2346.0 32728.0 
2237.0 33201.0 
2306.0 32822.0 
2235.0 33394.0 
2249.0 32919.0 
2346.0 32728.0 
2367.0 32648.0 
2306.0 32822.0 
2256.0 32846.0 
2346.0 32728.0 
2307.0 32759.0 
2249.0 32919.0 
2221.0 34003.0 
2221.0 34003.0 
